NAME          
ROWS
 N  OBJ
 L  c1
 L  c2
 L  c3
COLUMNS
    MARKER    'MARKER'                 'INTORG'
    x[1]      c1        255
    x[1]      c2        867
    x[1]      c3        200
    x[1]      OBJ       -410
    x[2]      c1        990
    x[2]      c2        515
    x[2]      c3        142
    x[2]      OBJ       -408
    x[3]      c1        225
    x[3]      c2        932
    x[3]      c3        453
    x[3]      OBJ       -283
    x[4]      c1        529
    x[4]      c2        86
    x[4]      c3        973
    x[4]      OBJ       -229
    x[5]      c1        116
    x[5]      c2        547
    x[5]      c3        656
    x[5]      OBJ       -7
    x[6]      c1        225
    x[6]      c2        252
    x[6]      c3        903
    x[6]      OBJ       -375
    x[7]      c1        670
    x[7]      c2        161
    x[7]      c3        143
    x[7]      OBJ       -589
    x[8]      c1        644
    x[8]      c2        970
    x[8]      c3        589
    x[8]      OBJ       -666
    x[9]      c1        345
    x[9]      c2        690
    x[9]      c3        276
    x[9]      OBJ       -79
    x[10]     c1        924
    x[10]     c2        855
    x[10]     c3        766
    x[10]     OBJ       -999
    x[11]     c1        305
    x[11]     c2        908
    x[11]     c3        329
    x[11]     OBJ       -948
    x[12]     c1        20
    x[12]     c2        335
    x[12]     c3        275
    x[12]     OBJ       -126
    x[13]     c1        192
    x[13]     c2        732
    x[13]     c3        549
    x[13]     OBJ       -261
    x[14]     c1        4
    x[14]     c2        844
    x[14]     c3        222
    x[14]     OBJ       -312
    x[15]     c1        843
    x[15]     c2        80
    x[15]     c3        629
    x[15]     OBJ       -681
    x[16]     c1        439
    x[16]     c2        779
    x[16]     c3        332
    x[16]     OBJ       -395
    x[17]     c1        1000
    x[17]     c2        310
    x[17]     c3        216
    x[17]     OBJ       -338
    x[18]     c1        535
    x[18]     c2        915
    x[18]     c3        118
    x[18]     OBJ       -812
    x[19]     c1        788
    x[19]     c2        566
    x[19]     c3        529
    x[19]     OBJ       -446
    x[20]     c1        190
    x[20]     c2        511
    x[20]     c3        5
    x[20]     OBJ       -463
    x[21]     c1        187
    x[21]     c2        942
    x[21]     c3        690
    x[21]     OBJ       -189
    x[22]     c1        873
    x[22]     c2        257
    x[22]     c3        383
    x[22]     OBJ       -176
    x[23]     c1        576
    x[23]     c2        241
    x[23]     c3        889
    x[23]     OBJ       -403
    x[24]     c1        719
    x[24]     c2        321
    x[24]     c3        251
    x[24]     OBJ       -26
    x[25]     c1        994
    x[25]     c2        617
    x[25]     c3        881
    x[25]     OBJ       -800
RHS
    rhs       c1        6294
    rhs       c2        7116
    rhs       c3        5700
RANGES
BOUNDS
 BV bounds    x[1]
 BV bounds    x[2]
 BV bounds    x[3]
 BV bounds    x[4]
 BV bounds    x[5]
 BV bounds    x[6]
 BV bounds    x[7]
 BV bounds    x[8]
 BV bounds    x[9]
 BV bounds    x[10]
 BV bounds    x[11]
 BV bounds    x[12]
 BV bounds    x[13]
 BV bounds    x[14]
 BV bounds    x[15]
 BV bounds    x[16]
 BV bounds    x[17]
 BV bounds    x[18]
 BV bounds    x[19]
 BV bounds    x[20]
 BV bounds    x[21]
 BV bounds    x[22]
 BV bounds    x[23]
 BV bounds    x[24]
 BV bounds    x[25]
ENDATA
